TePt111-10x10                     
  1.000000
   27.6999999999999993    0.0000000000000000    0.0000000000000000
  -13.8499999999999996   23.9889036847059991    0.0000000000000000
    0.0000000000000000    0.0000000000000000   27.1403463498916011
   Te   Pt
   49  466
Direct          Plane group = p3m1                              N   SiteLabel  Layer  Linking     FreeDir
  0.8522276310847168  0.0005741398265231  0.6385643468449159    1       Te_4f      1        1        free
  0.5634239857307511  0.0005521355689578  0.6416337427039589    2       Te_4f      1        2        free
  0.4371281498393240  0.0005521355686342  0.6416337427039589    3       Te_4f      1        2        free
  0.1483465087421836  0.0005741398247194  0.6385643468449159    4       Te_4f      1        1        free
  0.9994258601756626  0.8516534912625605  0.6385643468449159    5       Te_4f      1        1        free
  0.8522276310847170  0.8516534912621831  0.6385643468449159    6       Te_4f      1        1        free
  0.7046164455590371  0.8523082227809458  0.6392773286976341    7       Te_4f      1        3       [2 1]
  0.5609780978666543  0.8549714205387786  0.6418895697377537    8       Te_4f      1        4        free
  0.2939933226736210  0.8549714205380945  0.6418895697377537    9       Te_4f      1        4        free
  0.1476917772230443  0.8523082227795188  0.6392773286976341   10       Te_4f      1        3     [ 1 -1]
  0.8528649491739577  0.7057298983493466  0.6394682264839296   11       Te_4f      1        5       [1 2]
  0.5609780978666543  0.7060066773296260  0.6418895697377537   12       Te_4f      1        4        free
  0.1450285794648502  0.7060066773285599  0.6418895697377537   13       Te_4f      1        4        free
  0.9994478644324876  0.5628718501646798  0.6416337427039589   14       Te_4f      1        2        free
  0.8552006158420365  0.5612923102614598  0.6415600354215468   15       Te_4f      1        6        free
  0.7060916944183561  0.5612923102610777  0.6415600354215468   16       Te_4f      1        6        free
  0.5634239857307513  0.5628718501635624  0.6416337427039589   17       Te_4f      1        2        free
  0.9994478644324877  0.4365760142729291  0.6416337427039589   18       Te_4f      1        2        free
  0.4371281498393242  0.4365760142714881  0.6416337427039589   19       Te_4f      1        2        free
  0.2939933226736209  0.4390219021352242  0.6418895697377537   20       Te_4f      1        4        free
  0.1450285794648501  0.4390219021348425  0.6418895697377537   21       Te_4f      1        4        free
  0.8552006158420365  0.2939083055845890  0.6415600354215468   22       Te_4f      1        6        free
  0.4387076897421704  0.2939083055835218  0.6415600354215468   23       Te_4f      1        6        free
  0.1476917772230441  0.2953835544420984  0.6392773286976341   24       Te_4f      1        3       [1 2]
  0.9994258601756624  0.1477723689182230  0.6385643468449159   25       Te_4f      1        1        free
  0.8528649491739575  0.1471350508286052  0.6394682264839296   26       Te_4f      1        5     [ 1 -1]
  0.7060916944183558  0.1447993841601442  0.6415600354215468   27       Te_4f      1        6        free
  0.4387076897421704  0.1447993841594590  0.6415600354215468   28       Te_4f      1        6        free
  0.2942701016546477  0.1471350508271738  0.6394682264839296   29       Te_4f      1        5       [2 1]
  0.1483465087421836  0.1477723689160421  0.6385643468449159   30       Te_4f      1        1        free
  0.4281035822997589  0.8562071645976838  0.6510413426947242   31       Te_3f      1        7       [1 2]
  0.4281035822997589  0.5718964177028039  0.6510413426947242   32       Te_3f      1        7     [ 1 -1]
  0.1437928354056077  0.5718964177020753  0.6510413426947242   33       Te_3f      1        7       [2 1]
  0.8565361778269002  0.4282680889154614  0.6515926448374256   34       Te_3f      1        8       [2 1]
  0.5717319110878314  0.4282680889147315  0.6515926448374256   35       Te_3f      1        8     [ 1 -1]
  0.5717319110878313  0.1434638221749329  0.6515926448374256   36       Te_3f      1        8       [1 2]
  0.4263073312271842  0.7131536656139496  0.5972557288090168   37       Te_3h      1        9       [2 1]
  0.2868463343889706  0.7131536656135922  0.5972557288090168   38       Te_3h      1        9     [ 1 -1]
  0.2868463343889706  0.5736926687750211  0.5972557288090168   39       Te_3h      1        9       [1 2]
  0.7133831205831686  0.4267662411666963  0.5969414969117766   40       Te_3h      1       10       [1 2]
  0.7133831205831684  0.2866168794193943  0.5969414969117766   41       Te_3h      1       10     [ 1 -1]
  0.5732337588362257  0.2866168794190352  0.5969414969117766   42       Te_3h      1       10       [2 1]
  0.0000000000000000  0.0000000000000000  0.5945269264417021   43       Te_1h      1     none      locked
  0.7072159921948952  0.9988815679850372  0.5952023069277232   44       Te_1h      1       11        free
  0.2916655757908954  0.9988815679839725  0.5952023069277232   45       Te_1h      1       11        free
  0.0011184320193350  0.7083344242109230  0.5952023069277232   46       Te_1h      1       11        free
  0.0011184320193348  0.2927840078058581  0.5952023069277232   47       Te_1h      1       11        free
  0.7072159921948951  0.7083344242127322  0.5952023069277232   48       Te_1h      1       11        free
  0.2916655757908952  0.2927840078066026  0.5952023069277232   49       Te_1h      1       11        free
  0.8750312846497457  0.9375156423269552  0.5822457118049793   50      Pt_sub      1       12       [2 1]
  0.7657820989989075  0.9378076847846328  0.5820104326063118   51      Pt_sub      1       13        free
  0.5787213543068326  0.9368455668828670  0.5835528029784285   52      Pt_sub      1       14        free
  0.4698290127413623  0.9396580254812112  0.5888614639539655   53      Pt_sub      1       15       [1 2]
  0.3581242125772761  0.9368455668823018  0.5835528029784285   54      Pt_sub      1       14        free
  0.1720255857864852  0.9378076847831116  0.5820104326063118   55      Pt_sub      1       13        free
  0.0624843576776899  0.9375156423248728  0.5822457118049793   56      Pt_sub      1       12     [ 1 -1]
  0.9404890422702412  0.8809780845425872  0.5835769769295277   57      Pt_sub      1       16       [1 2]
  0.6443004574016251  0.8793655665526341  0.5836034258438966   58      Pt_sub      1       17        free
  0.2350651091522298  0.8793655665515856  0.5836034258438966   59      Pt_sub      1       17        free
  0.7657820989989074  0.8279744142175992  0.5820104326063118   60      Pt_sub      1       13        free
  0.4724847854277703  0.8252479890160668  0.5851272725615314   61      Pt_sub      1       18        free
  0.3527632035900962  0.8252479890157599  0.5851272725615314   62      Pt_sub      1       18        free
  0.0621923152197331  0.8279744142157963  0.5820104326063118   63      Pt_sub      1       13        free
  0.9398167971462179  0.7633798643440113  0.5835971887664365   64      Pt_sub      1       19        free
  0.8235630671959914  0.7633798643437134  0.5835971887664365   65      Pt_sub      1       19        free
  0.6443004574016251  0.7649348908513818  0.5836034258438966   66      Pt_sub      1       17        free
  0.5354778589189384  0.7677389294602462  0.5848044004339717   67      Pt_sub      1       20       [2 1]
  0.2322610705430936  0.7677389294594693  0.5848044004339717   68      Pt_sub      1       20     [ 1 -1]
  0.1206344334512707  0.7649348908500400  0.5836034258438966   69      Pt_sub      1       17        free
  0.8745462165232628  0.6418637314343052  0.5821035616459663   70      Pt_sub      1       21        free
  0.7673175149097194  0.6418637314340305  0.5821035616459663   71      Pt_sub      1       21        free
  0.5787213543068325  0.6418757874258521  0.5835528029784285   72      Pt_sub      1       14        free
  0.4724847854277702  0.6472367964127734  0.5851272725615314   73      Pt_sub      1       18        free
  0.1747520109872591  0.6472367964120105  0.5851272725615314   74      Pt_sub      1       18        free
  0.0631544331210171  0.6418757874245310  0.5835528029784285   75      Pt_sub      1       14        free
  0.9400823028752291  0.5870083968021761  0.5852439998185675   76      Pt_sub      1       22        free
  0.6469260939255966  0.5870083968014250  0.5852439998185675   77      Pt_sub      1       22        free
  0.7680523101554556  0.5361046203116904  0.5834004779714994   78      Pt_sub      1       23       [1 2]
  0.4698290127413621  0.5301709872612005  0.5888614639539655   79      Pt_sub      1       15     [ 1 -1]
  0.3527632035900961  0.5275152145744857  0.5851272725615314   80      Pt_sub      1       18        free
  0.1747520109872591  0.5275152145740295  0.5851272725615314   81      Pt_sub      1       18        free
  0.0603419745224010  0.5301709872601512  0.5888614639539655   82      Pt_sub      1       15       [2 1]
  0.9392502187755256  0.4696251093900920  0.5898730446337784   83      Pt_sub      1       24       [2 1]
  0.8245983809484633  0.4718236858744123  0.5861023376689758   84      Pt_sub      1       25        free
  0.6472253049251895  0.4718236858739576  0.5861023376689758   85      Pt_sub      1       25        free
  0.5303748906135187  0.4696251093890441  0.5898730446337784   86      Pt_sub      1       24     [ 1 -1]
  0.2322610705430935  0.4645221410828473  0.5848044004339717   87      Pt_sub      1       20       [1 2]
  0.3581242125772759  0.4212786456951649  0.5835528029784285   88      Pt_sub      1       14        free
  0.0631544331210170  0.4212786456944091  0.5835528029784285   89      Pt_sub      1       14        free
  0.9400823028752291  0.3530739060777178  0.5852439998185675   90      Pt_sub      1       22        free
  0.8245983809484633  0.3527746950778279  0.5861023376689758   91      Pt_sub      1       25        free
  0.5281763141289102  0.3527746950770683  0.5861023376689758   92      Pt_sub      1       25        free
  0.4129916032017375  0.3530739060763670  0.5852439998185675   93      Pt_sub      1       22        free
  0.2350651091522296  0.3556995425998888  0.5836034258438966   94      Pt_sub      1       17        free
  0.1206344334512706  0.3556995425995956  0.5836034258438966   95      Pt_sub      1       17        free
  0.8745462165232626  0.2326824850931184  0.5821035616459663   96      Pt_sub      1       21        free
  0.7680523101554553  0.2319476898471074  0.5834004779714994   97      Pt_sub      1       23     [ 1 -1]
  0.4638953796916520  0.2319476898463280  0.5834004779714994   98      Pt_sub      1       23       [2 1]
  0.3581362685695810  0.2326824850917951  0.5821035616459663   99      Pt_sub      1       21        free
  0.1720255857864850  0.2342179010021337  0.5820104326063118  100      Pt_sub      1       13        free
  0.0621923152197329  0.2342179010018522  0.5820104326063118  101      Pt_sub      1       13        free
  0.9398167971462177  0.1764369328068694  0.5835971887664365  102      Pt_sub      1       19        free
  0.6472253049251894  0.1754016190536451  0.5861023376689758  103      Pt_sub      1       25        free
  0.5281763141289103  0.1754016190533401  0.5861023376689758  104      Pt_sub      1       25        free
  0.2366201356603537  0.1764369328050675  0.5835971887664365  105      Pt_sub      1       19        free
  0.7673175149097191  0.1254537834790253  0.5821035616459663  106      Pt_sub      1       21        free
  0.3581362685695810  0.1254537834779769  0.5821035616459663  107      Pt_sub      1       21        free
  0.0624843576776897  0.1249687153507348  0.5822457118049793  108      Pt_sub      1       12       [1 2]
  0.9404890422702409  0.0595109577323217  0.5835769769295277  109      Pt_sub      1       16     [ 1 -1]
  0.8235630671959911  0.0601832028560470  0.5835971887664365  110      Pt_sub      1       19        free
  0.6469260939255964  0.0599176971265825  0.5852439998185675  111      Pt_sub      1       22        free
  0.5303748906135186  0.0607497812259895  0.5898730446337784  112      Pt_sub      1       24       [1 2]
  0.4129916032017374  0.0599176971259831  0.5852439998185675  113      Pt_sub      1       22        free
  0.2366201356603537  0.0601832028545429  0.5835971887664365  114      Pt_sub      1       19        free
  0.1190219154620808  0.0595109577302168  0.5835769769295277  115      Pt_sub      1       16       [2 1]
  0.0000000000000000  0.0000000000000000  0.5000879083121301  116     Pt_surf      2     none      locked
  0.9000988194805875  0.0001411794517230  0.4987690692008426  117     Pt_surf      2       26        free
  0.8014631693637989  0.0006736634908447  0.4985962474262394  118     Pt_surf      2       27        free
  0.7003226628714719  0.9996117399656103  0.5012442424992658  119     Pt_surf      2       28        free
  0.5997851876038579  0.0000703184800579  0.5016394920702332  120     Pt_surf      2       29        free
  0.4999128045954759  0.9998256091896697  0.5041765340412130  121     Pt_surf      2       30       [1 2]
  0.4002851308772254  0.0000703184795467  0.5016394920702332  122     Pt_surf      2       29        free
  0.2992890770949074  0.9996117399645825  0.5012442424992658  123     Pt_surf      2       28        free
  0.1992104941275530  0.0006736634893015  0.4985962474262394  124     Pt_surf      2       27        free
  0.1000423599713911  0.0001411794496729  0.4987690692008426  125     Pt_surf      2       26        free
  0.9998588205505842  0.8999576400334777  0.4987690692008426  126     Pt_surf      2       26        free
  0.9000988194805878  0.8999576400332222  0.4987690692008426  127     Pt_surf      2       26        free
  0.8016283075216645  0.9008141537626324  0.4990083432851326  128     Pt_surf      2       31       [2 1]
  0.7015721937180764  0.9004058999326515  0.4983425334303346  129     Pt_surf      2       32        free
  0.6007988640624889  0.8994778469147118  0.5001478954946144  130     Pt_surf      2       33        free
  0.5006562581003244  0.9002263275054446  0.5042464916051672  131     Pt_surf      2       34        free
  0.3995700694066557  0.9002263275051856  0.5042464916051672  132     Pt_surf      2       34        free
  0.2986789828535035  0.8994778469139375  0.5001478954946144  133     Pt_surf      2       33        free
  0.1988337062155953  0.9004058999313636  0.4983425334303346  134     Pt_surf      2       32        free
  0.0991858462417306  0.9008141537608324  0.4990083432851326  135     Pt_surf      2       31     [ 1 -1]
  0.9993263365112111  0.8007895058770603  0.4985962474262394  136     Pt_surf      2       27        free
  0.9004793926037044  0.8009587852092059  0.5025841852611258  137     Pt_surf      2       35       [1 2]
  0.8014631693637990  0.8007895058765534  0.4985962474262394  138     Pt_surf      2       27        free
  0.7015721937180764  0.8011662937882559  0.4983425334303346  139     Pt_surf      2       32        free
  0.6032800149439315  0.8016400074730035  0.5009920872512645  140     Pt_surf      2       36       [2 1]
  0.5028018579556330  0.8007684737831653  0.4997803559294396  141     Pt_surf      2       37        free
  0.3997599745565579  0.7995199491110638  0.5066902700759979  142     Pt_surf      2       38       [1 2]
  0.2979666158293169  0.8007684737826403  0.4997803559294396  143     Pt_surf      2       37        free
  0.1983599925305970  0.8016400074719660  0.5009920872512645  144     Pt_surf      2       36     [ 1 -1]
  0.0995941000714540  0.8011662937867136  0.4983425334303346  145     Pt_surf      2       32        free
  0.0003882600387463  0.7007109229068895  0.5012442424992658  146     Pt_surf      2       28        free
  0.9003383098699899  0.7021864195963931  0.4986136089441235  147     Pt_surf      2       39        free
  0.8018481097248595  0.7021864195961409  0.4986136089441235  148     Pt_surf      2       39        free
  0.7003226628714719  0.7007109229086833  0.5012442424992658  149     Pt_surf      2       28        free
  0.6007988640624888  0.7013210171498335  0.5001478954946144  150     Pt_surf      2       33        free
  0.5028018579556329  0.7020333841737707  0.4997803559294396  151     Pt_surf      2       37        free
  0.4005243111894646  0.7002621555949906  0.5063007266288986  152     Pt_surf      2       40       [2 1]
  0.2997378444078306  0.7002621555947324  0.5063007266288986  153     Pt_surf      2       40     [ 1 -1]
  0.1992315262201755  0.7020333841729929  0.4997803559294396  154     Pt_surf      2       37        free
  0.1005221530891331  0.7013210171485514  0.5001478954946144  155     Pt_surf      2       33        free
  0.9999296815214795  0.5997148691268742  0.5016394920702332  156     Pt_surf      2       29        free
  0.8988568197625861  0.6003338261905391  0.4999198374877545  157     Pt_surf      2       41        free
  0.8006497150501144  0.6012994301012589  0.4987711449726209  158     Pt_surf      2       42       [1 2]
  0.7014770064266740  0.6003338261900334  0.4999198374877545  159     Pt_surf      2       41        free
  0.5997851876038581  0.5997148691258488  0.5016394920702332  160     Pt_surf      2       29        free
  0.5006562581003244  0.6004299305961663  0.5042464916051672  161     Pt_surf      2       34        free
  0.3997599745565578  0.6002400254460047  0.5066902700759979  162     Pt_surf      2       38     [ 1 -1]
  0.2997378444078305  0.5994756888128401  0.5063007266288986  163     Pt_surf      2       40       [1 2]
  0.2004800508920096  0.6002400254454943  0.5066902700759979  164     Pt_surf      2       38       [2 1]
  0.0997736724981454  0.6004299305951388  0.5042464916051672  165     Pt_surf      2       34        free
  0.0001743908141738  0.5000871954058064  0.5041765340412130  166     Pt_surf      2       30       [2 1]
  0.9005351942769012  0.5007668714984982  0.5064114371517487  167     Pt_surf      2       43        free
  0.8001248067741977  0.5014022429937313  0.4997951185623262  168     Pt_surf      2       44        free
  0.7012774362187610  0.5014022429934780  0.4997951185623262  169     Pt_surf      2       44        free
  0.6002316772205688  0.5007668714977287  0.5064114371517487  170     Pt_surf      2       43        free
  0.4999128045954757  0.5000871954070869  0.5041765340412130  171     Pt_surf      2       30     [ 1 -1]
  0.3995700694066556  0.4993437419019794  0.5042464916051672  172     Pt_surf      2       34        free
  0.2979666158293169  0.4971981420464048  0.4997803559294396  173     Pt_surf      2       37        free
  0.1992315262201755  0.4971981420461519  0.4997803559294396  174     Pt_surf      2       37        free
  0.0997736724981455  0.4993437419012111  0.5042464916051672  175     Pt_surf      2       34        free
  0.9999296815214794  0.4002148123997302  0.5016394920702332  176     Pt_surf      2       29        free
  0.9005351942769012  0.3997683227827638  0.5064114371517487  177     Pt_surf      2       43        free
  0.8006869041295676  0.4003434520665804  0.5074210097382543  178     Pt_surf      2       45       [2 1]
  0.7006389412456526  0.4012778824915664  0.5059978816275906  179     Pt_surf      2       46       [1 2]
  0.5996565479364977  0.4003434520660653  0.5074210097382543  180     Pt_surf      2       45     [ 1 -1]
  0.4992331285050932  0.3997683227817354  0.5064114371517487  181     Pt_surf      2       43        free
  0.4002851308772254  0.4002148123981936  0.5016394920702332  182     Pt_surf      2       29        free
  0.2986789828535034  0.3992011359392997  0.5001478954946144  183     Pt_surf      2       33        free
  0.1983599925305970  0.3967199850575936  0.5009920872512645  184     Pt_surf      2       36       [1 2]
  0.1005221530891331  0.3992011359387919  0.5001478954946144  185     Pt_surf      2       33        free
  0.0003882600387462  0.2996773371292971  0.5012442424992658  186     Pt_surf      2       28        free
  0.8988568197625860  0.2985229935763948  0.4999198374877545  187     Pt_surf      2       41        free
  0.8001248067741976  0.2987225637840552  0.4997951185623262  188     Pt_surf      2       44        free
  0.7006389412456525  0.2993610587569102  0.5059978816275906  189     Pt_surf      2       46     [ 1 -1]
  0.5987221175112577  0.2993610587566491  0.5059978816275906  190     Pt_surf      2       46       [2 1]
  0.4985977570096042  0.2987225637832825  0.4997951185623262  191     Pt_surf      2       44        free
  0.3996661738133030  0.2985229935751156  0.4999198374877545  192     Pt_surf      2       41        free
  0.2992890770949072  0.2996773371300631  0.5012442424992658  193     Pt_surf      2       28        free
  0.1988337062155951  0.2984278062831979  0.4983425334303346  194     Pt_surf      2       32        free
  0.0995941000714537  0.2984278062829436  0.4983425334303346  195     Pt_surf      2       32        free
  0.9993263365112108  0.1985368306392709  0.4985962474262394  196     Pt_surf      2       27        free
  0.9003383098699898  0.1981518902779558  0.4986136089441235  197     Pt_surf      2       39        free
  0.8006497150501143  0.1993502849524484  0.4987711449726209  198     Pt_surf      2       42     [ 1 -1]
  0.7012774362187608  0.1998751932281119  0.4997951185623262  199     Pt_surf      2       44        free
  0.5996565479364976  0.1993130958724800  0.5074210097382543  200     Pt_surf      2       45       [1 2]
  0.4985977570096042  0.1998751932275925  0.4997951185623262  201     Pt_surf      2       44        free
  0.3987005699023341  0.1993502849514184  0.4987711449726209  202     Pt_surf      2       42       [2 1]
  0.2978135804077137  0.1981518902764119  0.4986136089441235  203     Pt_surf      2       39        free
  0.1992104941275530  0.1985368306372207  0.4985962474262394  204     Pt_surf      2       27        free
  0.0991858462417304  0.1983716924790981  0.4990083432851326  205     Pt_surf      2       31       [1 2]
  0.9998588205505839  0.0999011805222308  0.4987690692008426  206     Pt_surf      2       26        free
  0.9004793926037041  0.0995206073988586  0.5025841852611258  207     Pt_surf      2       35     [ 1 -1]
  0.8018481097248592  0.0996616901323206  0.4986136089441235  208     Pt_surf      2       39        free
  0.7014770064266738  0.1011431802394710  0.4999198374877545  209     Pt_surf      2       41        free
  0.6002316772205685  0.0994648057248920  0.5064114371517487  210     Pt_surf      2       43        free
  0.4992331285050930  0.0994648057246332  0.5064114371517487  211     Pt_surf      2       43        free
  0.3996661738133029  0.1011431802386975  0.4999198374877545  212     Pt_surf      2       41        free
  0.2978135804077137  0.0996616901310290  0.4986136089441235  213     Pt_surf      2       39        free
  0.1990412147951545  0.0995206073970612  0.5025841852611258  214     Pt_surf      2       35       [2 1]
  0.1000423599713912  0.0999011805199249  0.4987690692008426  215     Pt_surf      2       26        free
  0.9333333333342718  0.9666666666694423  0.4144562691851986  216      Pt_def      3       47       [2 1]
  0.8333333333344023  0.9666666666691882  0.4144562691851986  217      Pt_def      3       48        free
  0.7333333333345299  0.9666666666689318  0.4148247243209983  218      Pt_def      3       49        free
  0.6333333333346568  0.9666666666686757  0.4168512275678964  219      Pt_def      3       50        free
  0.5333333333347853  0.9666666666684164  0.4188777308147946  220      Pt_def      3       51        free
  0.4333333333349125  0.9666666666681600  0.4188777308147946  221      Pt_def      3       51        free
  0.3333333333350440  0.9666666666679069  0.4168512275678964  222      Pt_def      3       50        free
  0.2333333333351708  0.9666666666676506  0.4148247243209983  223      Pt_def      3       49        free
  0.1333333333352987  0.9666666666673945  0.4144562691851986  224      Pt_def      3       48        free
  0.0333333333354271  0.9666666666671361  0.4144562691851986  225      Pt_def      3       47     [ 1 -1]
  0.9333333333338441  0.8666666666697380  0.4153774070246978  226      Pt_def      3       52       [1 2]
  0.8333333333344023  0.8666666666690582  0.4144562691851986  227      Pt_def      3       48        free
  0.7333333333345300  0.8666666666688027  0.4142720416172987  228      Pt_def      3       53       [2 1]
  0.6333333333346569  0.8666666666685464  0.4155616345925975  229      Pt_def      3       54        free
  0.5333333333347846  0.8666666666682908  0.4172196827036963  230      Pt_def      3       55        free
  0.4333333333349123  0.8666666666680306  0.4203515513579936  231      Pt_def      3       56       [1 2]
  0.3333333333350438  0.8666666666677784  0.4172196827036963  232      Pt_def      3       55        free
  0.2333333333351709  0.8666666666675212  0.4155616345925975  233      Pt_def      3       54        free
  0.1333333333352978  0.8666666666672651  0.4142720416172987  234      Pt_def      3       53     [ 1 -1]
  0.0333333333354246  0.8666666666670080  0.4144562691851986  235      Pt_def      3       48        free
  0.9333333333338426  0.7666666666696126  0.4153774070246974  236      Pt_def      3       57        free
  0.8333333333339764  0.7666666666693562  0.4153774070246974  237      Pt_def      3       57        free
  0.7333333333345298  0.7666666666686733  0.4148247243209983  238      Pt_def      3       49        free
  0.6333333333346569  0.7666666666684171  0.4155616345925975  239      Pt_def      3       54        free
  0.5333333333347833  0.7666666666681606  0.4166669999999966  240      Pt_def      3       58       [2 1]
  0.4333333333349110  0.7666666666679048  0.4196146410863941  241      Pt_def      3       59        free
  0.3333333333350441  0.7666666666676488  0.4196146410863941  242      Pt_def      3       59        free
  0.2333333333351711  0.7666666666673917  0.4166669999999966  243      Pt_def      3       58     [ 1 -1]
  0.1333333333352978  0.7666666666671357  0.4155616345925975  244      Pt_def      3       54        free
  0.0333333333354250  0.7666666666668795  0.4148247243209983  245      Pt_def      3       49        free
  0.9333333333338416  0.6666666666694826  0.4157458621604972  246      Pt_def      3       60        free
  0.8333333333339736  0.6666666666692287  0.4150089518888981  247      Pt_def      3       61       [1 2]
  0.7333333333341036  0.6666666666689700  0.4157458621604972  248      Pt_def      3       60        free
  0.6333333333346568  0.6666666666682877  0.4168512275678964  249      Pt_def      3       50        free
  0.5333333333347847  0.6666666666680315  0.4172196827036963  250      Pt_def      3       55        free
  0.4333333333349110  0.6666666666677750  0.4196146410863941  251      Pt_def      3       59        free
  0.3333333333333333  0.6666666666666666  0.4229307373085919  252      Pt_def      3     none      locked
  0.2333333333351705  0.6666666666672626  0.4196146410863941  253      Pt_def      3       59        free
  0.1333333333352970  0.6666666666670066  0.4172196827036963  254      Pt_def      3       55        free
  0.0333333333354248  0.6666666666667501  0.4168512275678964  255      Pt_def      3       50        free
  0.9333333333338445  0.5666666666693577  0.4183250481110954  256      Pt_def      3       62        free
  0.8333333333339764  0.5666666666691050  0.4157458621604973  257      Pt_def      3       63        free
  0.7333333333341037  0.5666666666688488  0.4157458621604973  258      Pt_def      3       63        free
  0.6333333333342320  0.5666666666685890  0.4183250481110954  259      Pt_def      3       62        free
  0.5333333333347852  0.5666666666679065  0.4188777308147946  260      Pt_def      3       51        free
  0.4333333333349121  0.5666666666676505  0.4203515513579936  261      Pt_def      3       56     [ 1 -1]
  0.3333333333350439  0.5666666666673955  0.4196146410863941  262      Pt_def      3       59        free
  0.2333333333351703  0.5666666666671392  0.4196146410863941  263      Pt_def      3       59        free
  0.1333333333353011  0.5666666666668818  0.4203515513579936  264      Pt_def      3       56       [2 1]
  0.0333333333354278  0.5666666666666254  0.4188777308147946  265      Pt_def      3       51        free
  0.9333333333338439  0.4666666666692284  0.4207200064937932  266      Pt_def      3       64       [2 1]
  0.8333333333339760  0.4666666666689746  0.4196146410863941  267      Pt_def      3       65        free
  0.7333333333341032  0.4666666666687189  0.4172196827036963  268      Pt_def      3       66       [1 2]
  0.6333333333342299  0.4666666666684622  0.4196146410863941  269      Pt_def      3       65        free
  0.5333333333343595  0.4666666666682035  0.4207200064937932  270      Pt_def      3       64     [ 1 -1]
  0.4333333333349123  0.4666666666675212  0.4188777308147946  271      Pt_def      3       51        free
  0.3333333333350437  0.4666666666672655  0.4172196827036963  272      Pt_def      3       55        free
  0.2333333333351711  0.4666666666670107  0.4166669999999966  273      Pt_def      3       58       [1 2]
  0.1333333333352969  0.4666666666667530  0.4172196827036963  274      Pt_def      3       55        free
  0.0333333333354278  0.4666666666664963  0.4188777308147946  275      Pt_def      3       51        free
  0.9333333333338445  0.3666666666690997  0.4183250481110954  276      Pt_def      3       62        free
  0.8333333333339761  0.3666666666688455  0.4196146410863941  277      Pt_def      3       65        free
  0.7333333333341026  0.3666666666685889  0.4218253719011923  278      Pt_def      3       67       [2 1]
  0.6333333333342301  0.3666666666683326  0.4218253719011923  279      Pt_def      3       67     [ 1 -1]