Fe2O3(1-102)-(1x1) -- originally from COD 2101167
  1.000000
    5.0354999999999999    0.0000000000000000    0.0000000000000000
    0.0000000000000000    5.4267997742000000    0.0000000000000000
    0.0000000000000000   -3.0175643747000001   29.4583313627999992
   Fe    O
   16   24
Direct          Plane group = pg[0 1]                           N   SiteLabel  Layer  Linking     FreeDir
  0.2170340581868735  0.7986094402328761  0.4605654983743943    1     Fe_surf      1        1        free
  0.7829659418131264  0.2986094402328761  0.4605654983743943    2     Fe_surf      1        1        free
  0.7382831893555756  0.7157502105810731  0.4134181140044427    3      Fe_def      1        2        free
  0.2617168106444244  0.2157502105810731  0.4134181140044427    4      Fe_def      1        2        free
  0.7525816701419908  0.2909670826576287  0.3387225000000002    5      Fe_def      2        3        free
  0.2474183298580091  0.7909670826576287  0.3387225000000002    6      Fe_def      2        3        free
  0.2517873100983018  0.2097223467062643  0.2868565863186591    7      Fe_def      2        4        free
  0.7482126899016982  0.7097223467062642  0.2868565863186591    8      Fe_def      2        4        free
  0.2535746201966040  0.7881320066277220  0.2139261775242327    9      Fe_def      3        5        free
  0.7464253798033960  0.2881320066277219  0.2139261775242327   10      Fe_def      3        5        free
  0.7494042299672327  0.7143057505464039  0.1614831775242331   11      Fe_def      3        6        free
  0.2505957700327673  0.2143057505464039  0.1614831775242331   12      Fe_def      3        6        free
  0.7500000000000000  0.2902300000000001  0.0887225000000000   13      Fe_def      4        7        bulk
  0.2500000000000000  0.7902300000000002  0.0887225000000000   14      Fe_def      4        7        bulk
  0.2500000000000000  0.2097700000000000  0.0362795000000000   15      Fe_def      4        8        bulk
  0.7500000000000000  0.7097700000000000  0.0362795000000000   16      Fe_def      4        8        bulk
  0.9076647502730613  0.6360023856026806  0.4754733224757676   17      O_surf      1        9        free
  0.0923352497269388  0.1360023856026805  0.4754733224757676   18      O_surf      1        9        free
  0.4477774401747586  0.5019199134535650  0.4419469592790796   19       O_def      1       10        free
  0.5522225598252414  0.0019199134535650  0.4419469592790796   20       O_def      1       10        free
  0.9064732102075264  0.3394483052478812  0.3977974185682553   21       O_def      1       11        free
  0.0935267897924736  0.8394483052478812  0.3977974185682553   22       O_def      1       11        free
  0.4015084599344650  0.1544995403536289  0.3515935488590479   23       O_def      2       12        free
  0.5984915400655350  0.6544995403536288  0.3515935488590479   24       O_def      2       12        free
  0.9453943600436890  0.9997680760418575  0.3130770863186602   25       O_def      2       13        free
  0.0546056399563110  0.4997680760418575  0.3130770863186602   26       O_def      2       13        free
  0.4007140998907756  0.8436945767822084  0.2748012475565430   27       O_def      2       14        free
  0.5992859001092243  0.3436945767822084  0.2748012475565430   28       O_def      2       14        free
  0.8979338397378605  0.6535359484947640  0.2261861938105816   29       O_def      3       15        free
  0.1020661602621396  0.1535359484947640  0.2261861938105816   30       O_def      3       15        free
  0.4422169198689302  0.5002265092012325  0.1879073550484653   31       O_def      3       16        free
  0.5577830801310697  0.0002265092012325  0.1879073550484653   32       O_def      3       16        free
  0.9021042299672317  0.3547696924134460  0.1498341938105826   33       O_def      3       17        free
  0.0978957700327683  0.8547696924134460  0.1498341938105826   34       O_def      3       17        free
  0.4026999999999999  0.1526999999999999  0.1006770000000000   35       O_def      4       18        bulk
  0.5972999999999999  0.6526999999999998  0.1006770000000000   36       O_def      4       18        bulk
  0.9446000000000000 -0.0000000000000000  0.0625000000000000   37       O_def      4       19        bulk
  0.0554000000000000  0.5000000000000000  0.0625000000000000   38       O_def      4       19        bulk
  0.4026999999999999  0.8473000000000001  0.0243260000000000   39       O_def      4       20        bulk
  0.5972999999999999  0.3473000000000001  0.0243260000000000   40       O_def      4       20        bulk
