Fe3O4                                   
  1.000000
    5.9767022133000003    0.0000000000000000    0.0000000000000000
   -2.9883517958999999    5.1759755496000004    0.0000000000000000
    0.0000000000000000    0.0000000000000000   21.9598064422999997
    O   Fe
   20   16
Direct          Plane group = p3m1                              N   SiteLabel  Layer  Linking     FreeDir
  0.6789593639150723  0.8394796634475741  0.2921352980000000    1       O_def      4        1        bulk
  0.3514214047470919  0.1757106838619173  0.5113979707704126    2       O_def      2        2       [2 1]
  0.3210413439700696  0.1605206520557351  0.1789753290000000    3       O_def      4        3        bulk
  0.9780473808761750  0.4890237089529451  0.4016533774199366    4       O_def      2        4       [2 1]
  0.6534086754980262  0.8267043180998717  0.6163615899909840    5     O_surfB      1        5       [2 1]
  0.1605203365573762  0.3210406360864979  0.2921352980000000    6       O_def      4        1        bulk
  0.8242893923532075  0.6485786721395843  0.5113979707704126    7       O_def      2        2       [1 2]
  0.1732956825734220  0.3465913245036689  0.6163615899909840    8     O_surfB      1        5       [1 2]
  0.8394794248277097  0.6789587329167552  0.1789753290000000    9       O_def      4        3        bulk
  0.5109763690478266  0.0219526960074372  0.4016533774199366   10       O_def      2        4       [1 2]
  0.1605203764159346  0.8394796235873259  0.2921352980000000   11       O_def      4        1        bulk
  0.8242893566667042  0.1757107208868991  0.5113979707704126   12       O_def      2        2     [ 1 -1]
  0.8394793849692239  0.1605206919159104  0.1789753290000000   13       O_def      4        3        bulk
  0.5109764038430019  0.4890236719280187  0.4016533774199366   14       O_def      2        4     [ 1 -1]
  0.1732957188169349  0.8267042805178569  0.6163615899909840   15     O_surfB      1        5     [ 1 -1]
  0.3333333333333335  0.6666666666666666  0.1769266580000000   16       O_def      4     none        bulk
  0.0000000000000000  0.0000000000000000  0.3968724709003175   17       O_def      2     none      locked
  0.6666666666666666  0.3333333333333333  0.6354879690180326   18     O_surfA      1     none      locked
  0.6666666666666666  0.3333333333333333  0.2941839690000000   19       O_def      4     none        bulk
  0.3333333333333335  0.6666666666666666  0.5157235298700954   20       O_def      2     none      locked
  0.3333333333333335  0.6666666666666666  0.2633333210000001   21      Fe_tet      4     none        bulk
  0.0000000000000000  0.0000000000000000  0.4855552910000002   22      Fe_tet      2     none      locked
  0.6666666666666666  0.3333333333333333  0.2077780069999999   23      Fe_tet      4     none        bulk
  0.3333333333333335  0.6666666666666666  0.4302276367099683   24      Fe_tet      2     none      locked
  0.0000000000000000  0.0000000000000000  0.6522219180000000   25     Fe_surf      1     none      locked
  0.6666666851091928  0.8333333233357610  0.1244446640000001   26      Fe_def      5        6        bulk
  0.3333333917759004  0.1666666766674873  0.3468943527099683   27      Fe_def      3        7       [2 1]
  0.0000000269835798  0.4999999558287624  0.5727593130694606   28      Fe_def      1        8       [2 1]
  0.1666666766691290  0.3333333148924376  0.1244446640000001   29      Fe_def      5        6        bulk
  0.8333334002160175  0.6666666851108644  0.3468943527099683   30      Fe_def      3        7       [1 2]
  0.5000000441728681  0.9999999730213105  0.5727593130694606   31      Fe_def      1        8       [1 2]
  0.5000000057319350  0.4999999942713247  0.5727593130694606   32      Fe_def      1        8     [ 1 -1]
  0.1666667151100613  0.8333332848931991  0.1244446640000001   33      Fe_def      5        6        bulk
  0.8333333617750855  0.1666667151100492  0.3468943527099683   34      Fe_def      3        7     [ 1 -1]
  0.0000000000000000  0.0000000000000000  0.2355553210000000   35      Fe_def      4     none        bulk
  0.6666666666666666  0.3333333333333333  0.4577779470000001   36      Fe_def      2     none      locked
