
  1.000000
    5.0354990958999997    0.0000000000000000    0.0000000000000000
    0.0000000000000000    5.4267997742000000    0.0000000000000000
    0.0000000000000000   -3.0175643747000001   29.4583313627999992
   Fe    O
   16   24
Direct          Plane group = pg[0 1]                           N   SiteLabel  Layer  Linking     FreeDir
  0.2176298224077296  0.7980715295031380  0.4602599795880454    1     Fe_surf      1        1        free
  0.7823701775922703  0.2980715295031379  0.4602599795880454    2     Fe_surf      1        1        free
  0.7386798678450339  0.7134803608045870  0.4129768122019388    3      Fe_def      1        2        free
  0.2613201321549660  0.2134803608045870  0.4129768122019388    4      Fe_def      1        2        free
  0.7523840940589405  0.2884776826864837  0.3385527662298060    5      Fe_def      2        3        free
  0.2476159059410595  0.7884776826864835  0.3385527662298060    6      Fe_def      2        3        free
  0.2509914602328919  0.2090965141459633  0.2867208008025041    7      Fe_def      2        4        free
  0.7490085397671081  0.7090965141459632  0.2867208008025041    8      Fe_def      2        4        free
  0.2531774407452537  0.7884444331562305  0.2138243432621165    9      Fe_def      3        5        free
  0.7468225592547463  0.2884444331562305  0.2138243432621165   10      Fe_def      3        5        free
  0.7488079602205300  0.7116718464443865  0.1613813382621163   11      Fe_def      3        6        free
  0.2511920397794701  0.2116718464443865  0.1613813382621163   12      Fe_def      3        6        free
  0.7500010135000000  0.2902304975000007  0.0887224970000000   13      Fe_def      4        7        bulk
  0.2499989864999999  0.7902304975000007  0.0887224970000000   14      Fe_def      4        7        bulk
  0.2499985100000002  0.2097724825000004  0.0362794995000000   15      Fe_def      4        8        bulk
  0.7500014899999998  0.7097724825000005  0.0362794995000000   16      Fe_def      4        8        bulk
  0.9096521486302420  0.6337707618597319  0.4750989136813411   17      O_surf      1        9        free
  0.0903478513697579  0.1337707618597319  0.4750989136813411   18      O_surf      1        9        free
  0.4467814960123617  0.5011426057591100  0.4415406172306141   19       O_def      1       10        free
  0.5532185039876383  0.0011426057591100  0.4415406172306141   20       O_def      1       10        free
  0.9046874124657835  0.3372892055720098  0.3975598077899840   21       O_def      1       11        free
  0.0953125875342164  0.8372892055720099  0.3975598077899840   22       O_def      1       11        free
  0.4009142015807954  0.1535578262615336  0.3512201530646204   23       O_def      2       12        free
  0.5990857984192046  0.6535578262615336  0.3512201530646204   24       O_def      2       12        free
  0.9469800805589399  0.9990473956477094  0.3127725830323104   25       O_def      2       13        free
  0.0530199194410602  0.4990473956477094  0.3127725830323104   26       O_def      2       13        free
  0.4027014970000000  0.8444127766730695  0.2747672983025042   27       O_def      2       14        free
  0.5972985030000000  0.3444127766730696  0.2747672983025042   28       O_def      2       14        free
  0.8983325159752764  0.6558967025985268  0.2261173013025040   29       O_def      3       15        free
  0.1016674840247236  0.1558967025985268  0.2261173013025040   30       O_def      3       15        free
  0.4414195647547465  0.4982015453927481  0.1879083530484654   31       O_def      3       16        free
  0.5585804352452536  0.9982015453927480  0.1879083530484654   32       O_def      3       16        free
  0.9021057418602650  0.3526006909773764  0.1502425458590469   33       O_def      3       17        free
  0.0978942581397349  0.8526006909773765  0.1502425458590469   34       O_def      3       17        free
  0.4027015120000000  0.1527030020000002  0.1006769980000000   35       O_def      4       18        bulk
  0.5972984880000000  0.6527030020000002  0.1006769980000000   36       O_def      4       18        bulk
  0.9445969999999999  0.0000020134999998  0.0625009980000000   37       O_def      4       19        bulk
  0.0554030000000000  0.5000020134999998  0.0625009980000000   38       O_def      4       19        bulk
  0.4027014970000000  0.8472999930000000  0.0243260000000000   39       O_def      4       20        bulk
  0.5972985030000000  0.3472999929999999  0.0243260000000000   40       O_def      4       20        bulk
