Ir(100)-2x1_O
  2.711600
    2.0000000000000000    0.0000000000000000    0.0000000000000000
    0.0000000000000000    1.0000000000000000    0.0000000000000000
    0.0000000000000000    0.0000000000000000    7.0710677999999998
    O   Ir
    1   14
Direct          Plane group = pmm                               N   SiteLabel  Layer  Linking     FreeDir
  0.0000000000000000  0.0000000000000000  0.7599999999999999    1       O_ads      1     none      locked
  0.7499999999999999  0.0000000000000000  0.7000000000000000    2     Ir_surf      1        1       [1 0]
  0.2500000000000001  0.0000000000000001  0.7000000000000000    3     Ir_surf      1        1       [1 0]
  0.0000000000000000  0.5000000000000000  0.6000000000000000    4      Ir_def      2     none      locked
  0.5000000000000000  0.5000000000000000  0.6000000000000000    5      Ir_def      2     none      locked
  0.7499999999999999  0.0000000000000000  0.5000000000000000    6      Ir_def      3        2       [1 0]
  0.2500000000000001  0.0000000000000001  0.5000000000000000    7      Ir_def      3        2       [1 0]
  0.0000000000000000  0.5000000000000000  0.4000000000000000    8      Ir_def      4     none      locked
  0.5000000000000000  0.5000000000000000  0.4000000000000000    9      Ir_def      4     none      locked
  0.7499999999999999  0.0000000000000000  0.2999999999999999   10      Ir_def      5        3       [1 0]
  0.2500000000000001  0.0000000000000001  0.2999999999999999   11      Ir_def      5        3       [1 0]
  0.0000000000000000  0.5000000000000000  0.2000000000000000   12      Ir_def      6     none      locked
  0.5000000000000000  0.5000000000000000  0.2000000000000000   13      Ir_def      6     none      locked
  0.2500000000000001  0.0000000000000001  0.1000000000000000   14      Ir_def      7        4        bulk
  0.7499999999999999  0.0000000000000000  0.1000000000000000   15      Ir_def      7        4        bulk
