Cu
  1.000000
    1.2722367617953467   -2.2035780330691659    0.0000000000000000
    1.2722361749479483    2.2035780330691659    0.0000000000000000
    0.0000000000000000    0.0000000000000000   24.9618435455690957
   Cu
    6
Direct          Plane group = p3m1                              N   SiteLabel  Layer  Linking     FreeDir
  0.6666666666666665  0.3333333333333333  0.5166667100000000    1     Cu_surf      1     none      locked
  0.3333333333333332  0.6666666666666665  0.4333733981436479    2      Cu_def      2     none      locked
  0.0000000000000000  0.0000000000000000  0.3499599328563519    3      Cu_def      3     none      locked
  0.6666666666666665  0.3333333333333333  0.2667067421436482    4      Cu_def      4     none      locked
  0.3333333333333332  0.6666666666666665  0.1833333370000001    5      Cu_def      5     none      locked
  0.0000000000000000  0.0000000000000000  0.1000000009999999    6      Cu_def      6     none        bulk
